NAME : RC206.6100.tour
COMMENT : Cost = 0_6100
COMMENT : Found by LKH [Keld Helsgaun] Wed Sep 13 18:34:40 2017
TYPE : TOUR
DIMENSION : 55
TOUR_SECTION
1
23
24
22
50
20
19
49
26
25
21
53
3
46
6
47
9
8
7
5
4
2
52
43
45
40
37
41
42
39
38
36
44
55
13
15
48
17
16
12
11
10
14
18
54
34
31
32
30
28
29
27
33
35
51
-1
EOF
